32      4       
11      11      20      13      
0       0       0       0       0       4       2       13      30      31      
10      0       3       0       3       2       3       29      
1       1       0       4       0       1       4       
8       5       0       1       0       2       5       18      
3       0       0       5       6       1       6       
3       0       5       1       0       1       7       
6       2       1       0       0       3       8       17      26      
5       0       5       0       7       1       9       
3       0       8       0       1       3       10      24      25      
4       1       0       1       0       1       11      
8       4       0       8       0       4       12      21      22      23      
5       3       0       0       2       2       14      20      
4       1       1       0       0       2       16      28      
6       0       0       1       3       1       15      
5       1       0       7       0       1       16      
6       0       1       12      0       1       19      
8       0       0       4       6       1       19      
2       0       5       0       7       1       27      
9       1       0       0       1       1       32      
10      5       0       0       1       1       32      
3       0       1       10      0       1       32      
3       1       0       0       1       1       32      
10      3       0       0       1       1       32      
3       11      0       0       5       1       32      
6       1       4       0       0       1       32      
9       0       0       11      4       1       32      
10      0       2       0       1       1       32      
10      0       1       1       0       1       32      
6       1       1       0       0       1       32      
7       0       2       8       0       1       32      
1       0       1       1       0       1       32      
0       0       0       0       0       0       
